PreSolver/instances/dataset_final/sat_subsetcard_12_72_73762.cnf
c description: Subset cardinality formula for complete_bipartite_graph(2,6)
c generator: CNFgen (0.9.0)
c copyright: (C) 2012-2020 Massimo Lauria <massimo.lauria@uniroma1.it>
c url: https://massimolauria.net/cnfgen
c
p cnf 12 72
-1 -2 -3 -4 0
-1 -2 -3 -5 0
-1 -2 -3 -6 0
-1 -2 -4 -5 0
-1 -2 -4 -6 0
-1 -2 -5 -6 0
-1 -3 -4 -5 0
-1 -3 -4 -6 0
-1 -3 -5 -6 0
-1 -4 -5 -6 0
-2 -3 -4 -5 0
-2 -3 -4 -6 0
-2 -3 -5 -6 0
-2 -4 -5 -6 0
-3 -4 -5 -6 0
1 2 3 4 0
1 2 3 5 0
1 2 3 6 0
1 2 4 5 0
1 2 4 6 0
1 2 5 6 0
1 3 4 5 0
1 3 4 6 0
1 3 5 6 0
1 4 5 6 0
2 3 4 5 0
2 3 4 6 0
2 3 5 6 0
2 4 5 6 0
3 4 5 6 0
-7 -8 -9 -10 0
-7 -8 -9 -11 0
-7 -8 -9 -12 0
-7 -8 -10 -11 0
-7 -8 -10 -12 0
-7 -8 -11 -12 0
-7 -9 -10 -11 0
-7 -9 -10 -12 0
-7 -9 -11 -12 0
-7 -10 -11 -12 0
-8 -9 -10 -11 0
-8 -9 -10 -12 0
-8 -9 -11 -12 0
-8 -10 -11 -12 0
-9 -10 -11 -12 0
7 8 9 10 0
7 8 9 11 0
7 8 9 12 0
7 8 10 11 0
7 8 10 12 0
7 8 11 12 0
7 9 10 11 0
7 9 10 12 0
7 9 11 12 0
7 10 11 12 0
8 9 10 11 0
8 9 10 12 0
8 9 11 12 0
8 10 11 12 0
9 10 11 12 0
-1 -7 0
1 7 0
-2 -8 0
2 8 0
-3 -9 0
3 9 0
-4 -10 0
4 10 0
-5 -11 0
5 11 0
-6 -12 0
6 12 0